
  32    1
  10

   0   0   7 2 3 4 5 6 8 9 
   6   1   5 31 21 20 12 7 
   9  10   4 31 21 12 7 
   9   5   4 31 21 11 7 
   2   7   5 30 21 17 13 12 
   6   9   4 30 14 13 10 
   6   9   3 30 14 13 
   6   5   6 31 29 28 19 15 14 
   9   6   7 30 29 28 19 18 16 15 
   2   6   6 31 29 28 21 19 15 
  10   9   2 18 13 
   9   5   3 29 19 14 
  10   7   4 29 28 19 15 
   7   4   2 18 16 
   7   7   5 27 26 25 23 22 
   8   3   4 27 25 23 22 
   2   9   4 28 26 25 22 
   4   9   3 26 25 22 
   7   5   2 25 24 
   8   2   2 27 26 
   7   7   1 22 
   7   7   1 24 
   3   5   1 24 
   8   3   1 32
   2   5   1 32
   5   5   1 32
   3   7   1 32
   9   6   1 32
   3   8   1 32
   8   3   1 32
   4   6   1 32
   0   0   0 
